pure_adt/tip2015_mccarthy91_M1.smt2
(set-logic HORN)
(declare-datatypes ((Nat_229 0)) (((Z_717 ) (S_209 (unS_254 Nat_229)))))
(declare-fun diseqNat_229 (Nat_229 Nat_229) Bool)
(declare-fun unS_255 (Nat_229 Nat_229) Bool)
(declare-fun isZ_200 (Nat_229) Bool)
(declare-fun isS_200 (Nat_229) Bool)
(assert (forall ((x_18378 Nat_229))
	(unS_255 x_18378 (S_209 x_18378))))
(assert (isZ_200 Z_717))
(assert (forall ((x_18380 Nat_229))
	(isS_200 (S_209 x_18380))))
(assert (forall ((x_18381 Nat_229))
	(diseqNat_229 Z_717 (S_209 x_18381))))
(assert (forall ((x_18382 Nat_229))
	(diseqNat_229 (S_209 x_18382) Z_717)))
(assert (forall ((x_18383 Nat_229) (x_18384 Nat_229))
	(=> (diseqNat_229 x_18383 x_18384)
	    (diseqNat_229 (S_209 x_18383) (S_209 x_18384)))))
(declare-fun add_132 (Nat_229 Nat_229 Nat_229) Bool)
(declare-fun minus_130 (Nat_229 Nat_229 Nat_229) Bool)
(declare-fun le_127 (Nat_229 Nat_229) Bool)
(declare-fun ge_127 (Nat_229 Nat_229) Bool)
(declare-fun lt_131 (Nat_229 Nat_229) Bool)
(declare-fun gt_128 (Nat_229 Nat_229) Bool)
(declare-fun mult_127 (Nat_229 Nat_229 Nat_229) Bool)
(declare-fun div_127 (Nat_229 Nat_229 Nat_229) Bool)
(declare-fun mod_127 (Nat_229 Nat_229 Nat_229) Bool)
(assert (forall ((y_703 Nat_229))
	(add_132 y_703 Z_717 y_703)))
(assert (forall ((x_18374 Nat_229) (y_703 Nat_229) (r_148 Nat_229))
	(=> (add_132 r_148 x_18374 y_703)
	    (add_132 (S_209 r_148) (S_209 x_18374) y_703))))
(assert (forall ((y_703 Nat_229))
	(minus_130 Z_717 Z_717 y_703)))
(assert (forall ((x_18374 Nat_229) (y_703 Nat_229) (r_148 Nat_229))
	(=> (minus_130 r_148 x_18374 y_703)
	    (minus_130 (S_209 r_148) (S_209 x_18374) y_703))))
(assert (forall ((y_703 Nat_229))
	(le_127 Z_717 y_703)))
(assert (forall ((x_18374 Nat_229) (y_703 Nat_229))
	(=> (le_127 x_18374 y_703)
	    (le_127 (S_209 x_18374) (S_209 y_703)))))
(assert (forall ((y_703 Nat_229))
	(ge_127 y_703 Z_717)))
(assert (forall ((x_18374 Nat_229) (y_703 Nat_229))
	(=> (ge_127 x_18374 y_703)
	    (ge_127 (S_209 x_18374) (S_209 y_703)))))
(assert (forall ((y_703 Nat_229))
	(lt_131 Z_717 (S_209 y_703))))
(assert (forall ((x_18374 Nat_229) (y_703 Nat_229))
	(=> (lt_131 x_18374 y_703)
	    (lt_131 (S_209 x_18374) (S_209 y_703)))))
(assert (forall ((y_703 Nat_229))
	(gt_128 (S_209 y_703) Z_717)))
(assert (forall ((x_18374 Nat_229) (y_703 Nat_229))
	(=> (gt_128 x_18374 y_703)
	    (gt_128 (S_209 x_18374) (S_209 y_703)))))
(assert (forall ((y_703 Nat_229))
	(mult_127 Z_717 Z_717 y_703)))
(assert (forall ((x_18374 Nat_229) (y_703 Nat_229) (r_148 Nat_229) (z_718 Nat_229))
	(=>	(and (mult_127 r_148 x_18374 y_703)
			(add_132 z_718 r_148 y_703))
		(mult_127 z_718 (S_209 x_18374) y_703))))
(assert (forall ((x_18374 Nat_229) (y_703 Nat_229))
	(=> (lt_131 x_18374 y_703)
	    (div_127 Z_717 x_18374 y_703))))
(assert (forall ((x_18374 Nat_229) (y_703 Nat_229) (r_148 Nat_229) (z_718 Nat_229))
	(=>	(and (ge_127 x_18374 y_703)
			(minus_130 z_718 x_18374 y_703)
			(div_127 r_148 z_718 y_703))
		(div_127 (S_209 r_148) x_18374 y_703))))
(assert (forall ((x_18374 Nat_229) (y_703 Nat_229))
	(=> (lt_131 x_18374 y_703)
	    (mod_127 x_18374 x_18374 y_703))))
(assert (forall ((x_18374 Nat_229) (y_703 Nat_229) (r_148 Nat_229) (z_718 Nat_229))
	(=>	(and (ge_127 x_18374 y_703)
			(minus_130 z_718 x_18374 y_703)
			(mod_127 r_148 z_718 y_703))
		(mod_127 r_148 x_18374 y_703))))
(declare-fun m_21 (Nat_229 Nat_229) Bool)
(assert (forall ((x_18369 Nat_229) (x_18368 Nat_229))
	(=>	(and (gt_128 x_18368 (S_209 (S_209 (S_209 (S_209 (S_209 (S_209 (S_209 (S_209 (S_209 (S_209 (S_209 (S_209 (S_209 (S_209 (S_209 (S_209 (S_209 (S_209 (S_209 (S_209 (S_209 (S_209 (S_209 (S_209 (S_209 (S_209 (S_209 (S_209 (S_209 (S_209 (S_209 (S_209 (S_209 (S_209 (S_209 (S_209 (S_209 (S_209 (S_209 (S_209 (S_209 (S_209 (S_209 (S_209 (S_209 (S_209 (S_209 (S_209 (S_209 (S_209 (S_209 (S_209 (S_209 (S_209 (S_209 (S_209 (S_209 (S_209 (S_209 (S_209 (S_209 (S_209 (S_209 (S_209 (S_209 (S_209 (S_209 (S_209 (S_209 (S_209 (S_209 (S_209 (S_209 (S_209 (S_209 (S_209 (S_209 (S_209 (S_209 (S_209 (S_209 (S_209 (S_209 (S_209 (S_209 (S_209 (S_209 (S_209 (S_209 (S_209 (S_209 (S_209 (S_209 (S_209 (S_209 (S_209 (S_209 (S_209 (S_209 (S_209 Z_717)))))))))))))))))))))))))))))))))))))))))))))))))))))))))))))))))))))))))))))))))))))))))))))))))))))
			(minus_130 x_18369 x_18368 (S_209 (S_209 (S_209 (S_209 (S_209 (S_209 (S_209 (S_209 (S_209 (S_209 Z_717))))))))))))
		(m_21 x_18369 x_18368))))
(assert (forall ((x_18376 Nat_229) (x_18370 Nat_229) (x_18371 Nat_229) (x_18368 Nat_229))
	(=>	(and (le_127 x_18368 (S_209 (S_209 (S_209 (S_209 (S_209 (S_209 (S_209 (S_209 (S_209 (S_209 (S_209 (S_209 (S_209 (S_209 (S_209 (S_209 (S_209 (S_209 (S_209 (S_209 (S_209 (S_209 (S_209 (S_209 (S_209 (S_209 (S_209 (S_209 (S_209 (S_209 (S_209 (S_209 (S_209 (S_209 (S_209 (S_209 (S_209 (S_209 (S_209 (S_209 (S_209 (S_209 (S_209 (S_209 (S_209 (S_209 (S_209 (S_209 (S_209 (S_209 (S_209 (S_209 (S_209 (S_209 (S_209 (S_209 (S_209 (S_209 (S_209 (S_209 (S_209 (S_209 (S_209 (S_209 (S_209 (S_209 (S_209 (S_209 (S_209 (S_209 (S_209 (S_209 (S_209 (S_209 (S_209 (S_209 (S_209 (S_209 (S_209 (S_209 (S_209 (S_209 (S_209 (S_209 (S_209 (S_209 (S_209 (S_209 (S_209 (S_209 (S_209 (S_209 (S_209 (S_209 (S_209 (S_209 (S_209 (S_209 (S_209 (S_209 Z_717)))))))))))))))))))))))))))))))))))))))))))))))))))))))))))))))))))))))))))))))))))))))))))))))))))))
			(m_21 x_18371 x_18376)
			(m_21 x_18370 x_18371)
			(add_132 x_18376 x_18368 (S_209 (S_209 (S_209 (S_209 (S_209 (S_209 (S_209 (S_209 (S_209 (S_209 (S_209 Z_717)))))))))))))
		(m_21 x_18370 x_18368))))
(assert (forall ((x_18373 Nat_229) (n_44 Nat_229))
	(=>	(and true
			(diseqNat_229 x_18373 (S_209 (S_209 (S_209 (S_209 (S_209 (S_209 (S_209 (S_209 (S_209 (S_209 (S_209 (S_209 (S_209 (S_209 (S_209 (S_209 (S_209 (S_209 (S_209 (S_209 (S_209 (S_209 (S_209 (S_209 (S_209 (S_209 (S_209 (S_209 (S_209 (S_209 (S_209 (S_209 (S_209 (S_209 (S_209 (S_209 (S_209 (S_209 (S_209 (S_209 (S_209 (S_209 (S_209 (S_209 (S_209 (S_209 (S_209 (S_209 (S_209 (S_209 (S_209 (S_209 (S_209 (S_209 (S_209 (S_209 (S_209 (S_209 (S_209 (S_209 (S_209 (S_209 (S_209 (S_209 (S_209 (S_209 (S_209 (S_209 (S_209 (S_209 (S_209 (S_209 (S_209 (S_209 (S_209 (S_209 (S_209 (S_209 (S_209 (S_209 (S_209 (S_209 (S_209 (S_209 (S_209 (S_209 (S_209 (S_209 (S_209 (S_209 (S_209 Z_717))))))))))))))))))))))))))))))))))))))))))))))))))))))))))))))))))))))))))))))))))))))))))))
			(le_127 n_44 (S_209 (S_209 (S_209 (S_209 (S_209 (S_209 (S_209 (S_209 (S_209 (S_209 (S_209 (S_209 (S_209 (S_209 (S_209 (S_209 (S_209 (S_209 (S_209 (S_209 (S_209 (S_209 (S_209 (S_209 (S_209 (S_209 (S_209 (S_209 (S_209 (S_209 (S_209 (S_209 (S_209 (S_209 (S_209 (S_209 (S_209 (S_209 (S_209 (S_209 (S_209 (S_209 (S_209 (S_209 (S_209 (S_209 (S_209 (S_209 (S_209 (S_209 (S_209 (S_209 (S_209 (S_209 (S_209 (S_209 (S_209 (S_209 (S_209 (S_209 (S_209 (S_209 (S_209 (S_209 (S_209 (S_209 (S_209 (S_209 (S_209 (S_209 (S_209 (S_209 (S_209 (S_209 (S_209 (S_209 (S_209 (S_209 (S_209 (S_209 (S_209 (S_209 (S_209 (S_209 (S_209 (S_209 (S_209 (S_209 (S_209 (S_209 (S_209 (S_209 (S_209 (S_209 (S_209 (S_209 (S_209 (S_209 (S_209 (S_209 Z_717)))))))))))))))))))))))))))))))))))))))))))))))))))))))))))))))))))))))))))))))))))))))))))))))))))))
			(m_21 x_18373 n_44))
		false)))
(check-sat)
